(declare-fun x0 () Int)
(assert (= x0 (+ 3 4)))
(declare-fun x1 () Int)
(assert (= x1 (* 8 8)))
(declare-fun x2 () Int)
(assert (= x2 (- 7 4)))
(declare-fun x3 () Int)
(assert (= x3 (- 2 0)))
(declare-fun x4 () Int)
(assert (= x4 (- 0 4)))
(declare-fun x5 () Int)
(assert (= x5 (* 8 8)))
(declare-fun x6 () Int)
(assert (= x6 (* 9 3)))
(declare-fun x7 () Int)
(assert (= x7 (- 9 8)))
(declare-fun x8 () Int)
(assert (= x8 (- 3 1)))
(declare-fun x9 () Int)
(assert (= x9 (+ 5 9)))
(declare-fun x10 () Int)
(assert (= x10 (- 1 4)))
(declare-fun x11 () Int)
(assert (= x11 (- 1 7)))
(declare-fun x12 () Int)
(assert (= x12 (- 7 8)))
(declare-fun x13 () Int)
(assert (= x13 (+ 4 6)))
(declare-fun x14 () Int)
(assert (= x14 (* 4 9)))
(declare-fun x15 () Int)
(assert (= x15 (- 8 5)))
(declare-fun x16 () Int)
(assert (= x16 (* 2 0)))
(declare-fun x17 () Int)
(assert (= x17 (+ 9 0)))
(declare-fun x18 () Int)
(assert (= x18 (* 8 6)))
(declare-fun x19 () Int)
(assert (= x19 (+ 3 5)))
(declare-fun x20 () Int)
(assert (= x20 (* 6 0)))
(declare-fun x21 () Int)
(assert (= x21 (+ 8 4)))
(declare-fun x22 () Int)
(assert (= x22 (+ 5 2)))
(declare-fun x23 () Int)
(assert (= x23 (* 4 8)))
(declare-fun x24 () Int)
(assert (= x24 (* 6 4)))
(declare-fun x25 () Int)
(assert (= x25 (* 1 6)))
(declare-fun x26 () Int)
(assert (= x26 (+ 1 2)))
(declare-fun x27 () Int)
(assert (= x27 (* 4 7)))
(declare-fun x28 () Int)
(assert (= x28 (- 8 7)))
(declare-fun x29 () Int)
(assert (= x29 (* 3 0)))
(declare-fun x30 () Int)
(assert (= x30 (* 2 0)))
(declare-fun x31 () Int)
(assert (= x31 (- 3 4)))
(declare-fun x32 () Int)
(assert (= x32 (+ 8 6)))
(declare-fun x33 () Int)
(assert (= x33 (- 7 7)))
(declare-fun x34 () Int)
(assert (= x34 (- 3 4)))
(declare-fun x35 () Int)
(assert (= x35 (* 4 3)))
(declare-fun x36 () Int)
(assert (= x36 (- 1 4)))
(declare-fun x37 () Int)
(assert (= x37 (* 8 9)))
(declare-fun x38 () Int)
(assert (= x38 (+ 1 0)))
(declare-fun x39 () Int)
(assert (= x39 (* 3 9)))
(declare-fun x40 () Int)
(assert (= x40 (- 7 5)))
(declare-fun x41 () Int)
(assert (= x41 (- 6 3)))
(declare-fun x42 () Int)
(assert (= x42 (+ 3 7)))
(declare-fun x43 () Int)
(assert (= x43 (+ 9 8)))
(declare-fun x44 () Int)
(assert (= x44 (* 4 9)))
(declare-fun x45 () Int)
(assert (= x45 (* 9 8)))
(declare-fun x46 () Int)
(assert (= x46 (+ 4 1)))
(declare-fun x47 () Int)
(assert (= x47 (+ 8 5)))
(declare-fun x48 () Int)
(assert (= x48 (+ 8 7)))
(declare-fun x49 () Int)
(assert (= x49 (- 7 6)))
(check-sat)
(get-model)
